SPARKNaCl/why3-z3/sparknacl-aes.adb_798_42_range_check2_1.smt2
;; produced by z3_gnatprove.drv ;;
(set-info :smt-lib-version 2.5)
(set-info :source |VC generated by SPARK 2014|)
(set-info :category industrial)
(set-info :status unknown)
;;; generated by SMT-LIB2 driver
;;; SMT-LIB2 driver: bit-vectors, common part
;;; SMT-LIB2: integer arithmetic
(declare-datatypes ()
  ((int__ref (int__refqtmk (int__content Int)))))

(declare-sort u32 0)

;; "to_rep"
(declare-fun to_rep (u32) (_ BitVec 32))

;; "of_rep"
(declare-fun of_rep ((_ BitVec 32)) u32)

;; "inversion_axiom"
(assert
  (forall ((x u32)) (! (= (of_rep (to_rep x)) x) :pattern ((to_rep x)) )))

;; "range_axiom"
(assert true)

;; "coerce_axiom"
(assert
  (forall ((x (_ BitVec 32)))
    (! (= (to_rep (of_rep x)) x) :pattern ((to_rep (of_rep x))) )))

(declare-sort map1 0)

(declare-datatypes ()
  ((map__ref (map__refqtmk (map__content map1)))))

;; "has_bounds"
(declare-fun has_bounds (map1
  Int
  Int) Bool)

(declare-sort map2 0)

;; "has_bounds"
(declare-fun has_bounds1 (map2
  Int
  Int) Bool)

;; "get"
(declare-fun get (map2
  Int) map1)

(declare-datatypes ()
  ((us_split_fields
   (us_split_fieldsqtmk
   (rec__ada___sparknacl__aes__aes128_round_keys__f map2)))))

(declare-datatypes ()
  ((us_rep (us_repqtmk (us_split_fields1 us_split_fields)))))

;; "in_range"
(define-fun in_range ((x Int)) Bool
  (and (<= 0 x) (<= x 10)))

;; "dynamic_invariant"
(define-fun dynamic_invariant ((temp___expr_563 us_rep) (temp___is_init_559 Bool) (temp___skip_constant_560 Bool) (temp___do_toplevel_561 Bool) (temp___do_typ_inv_562 Bool)) Bool
  (and
    (has_bounds1
      (rec__ada___sparknacl__aes__aes128_round_keys__f
        (us_split_fields1 temp___expr_563))
      0
      10)
    (forall ((temp___564 Int))
      (=>
        (and (<= 0 temp___564) (<= temp___564 10))
        (has_bounds
          (get
            (rec__ada___sparknacl__aes__aes128_round_keys__f
              (us_split_fields1 temp___expr_563))
            temp___564)
          0
          3)))))

(declare-sort byte 0)

;; "to_rep"
(declare-fun to_rep1 (byte) (_ BitVec 8))

;; "of_rep"
(declare-fun of_rep1 ((_ BitVec 8)) byte)

;; "inversion_axiom"
(assert
  (forall ((x byte)) (! (= (of_rep1 (to_rep1 x)) x) :pattern ((to_rep1 x)) )))

;; "range_axiom"
(assert true)

;; "coerce_axiom"
(assert
  (forall ((x (_ BitVec 8)))
    (! (= (to_rep1 (of_rep1 x)) x) :pattern ((to_rep1 (of_rep1 x))) )))

(declare-sort map3 0)

(declare-datatypes ()
  ((map__ref1 (map__refqtmk1 (map__content1 map3)))))

;; "has_bounds"
(declare-fun has_bounds2 (map3
  Int
  Int) Bool)

(declare-const input map3)

(declare-const round_keys us_rep)

;; "construct_state"
(declare-fun construct_state (map3) map1)

;; "construct_state__function_guard"
(declare-fun construct_state__function_guard (map1
  map3) Bool)

(declare-const output map3)

;; "output'unused"
(define-fun outputqtunused () map__ref1
  (map__refqtmk1 output))

;; "Assume"
(assert (has_bounds2 output 0 15))

;; "Assume"
(assert (has_bounds2 input 0 15))

;; "Assume"
(assert (dynamic_invariant round_keys true false true true))

(declare-const key_index Int)

;; "key_index'unused"
(define-fun key_indexqtunused () int__ref
  (int__refqtmk key_index))

;; "H"
(assert (= key_index 10))

;; "Assume"
(assert (in_range key_index))

;; "o"
(define-fun o () map3
  input)

;; "o"
(define-fun o1 () map1
  (construct_state o))

;; "H"
(assert (construct_state__function_guard o1 o))

;; "H"
(assert (has_bounds o1 0 3))

;; "construct_state'result'unused"
(define-fun construct_stateqtresultqtunused () map1
  o1)

(declare-const state map1)

;; "state'unused"
(define-fun stateqtunused () map__ref
  (map__refqtmk state))

;; "H"
(assert (= state o1))

;; "Assume"
(assert (has_bounds state 0 3))

;; "map__content'result'unused"
(define-fun map__contentqtresultqtunused () map1
  state)

;; "o"
(define-fun o2 () us_split_fields
  (us_split_fields1 round_keys))

;; "__split_fields'result'unused"
(define-fun us_split_fieldsqtresultqtunused () us_split_fields
  o2)

;; "temp___1423"
(define-fun temp___1423 () map2
  (rec__ada___sparknacl__aes__aes128_round_keys__f o2))

;; "rec__ada___sparknacl__aes__aes128_round_keys__f'result'unused"
(define-fun rec__ada___sparknacl__aes__aes128_round_keys__fqtresultqtunused 
  () map2
  temp___1423)

;; "int__content'result'unused"
(define-fun int__contentqtresultqtunused () Int
  key_index)

;; "get'result'unused"
(define-fun getqtresultqtunused () map1
  (get temp___1423 key_index))

(declare-const state1 map1)

;; "state'unused"
(define-fun stateqtunused1 () map__ref
  (map__refqtmk state1))

;; "H"
(assert (has_bounds state1 0 3))

;; "H"
(assert true)

;; "H"
(assert true)

;; "int__content'result'unused"
(define-fun int__contentqtresultqtunused1 () Int
  key_index)

;; "Ensures"
(assert (not (= key_index (- 2147483648))))

;; "check_not_first'result'unused"
(define-fun check_not_firstqtresultqtunused () Int
  key_index)

;; "o"
(define-fun o3 () Int
  (- key_index 1))

;; "infix -'result'unused"
(define-fun infix_mnqtresultqtunused () Int
  o3)

;; Goal "def'vc"
;; File "sparknacl-aes.ads", line 78, characters 0-0
(assert
  (not (<= o3 10)))

(check-sat)
